% from j203_2.mm
Act = {1,2,3,4,5,6,7,8,9,10,11,12,13,14,15,16,17,18,19,20,21,22};
Mod = {1,2,3,4,5,6,7,8,9,10,11,12,13,14,15,16,17,18,19,20,21,22,23,24,25,26,27,28,29,30,31,32,33,34,35,36,37,38,39,40,41,42,43,44,45,46,47,48,49,50,51,52,53,54,55,56,57,58,59,60,61,62};

Res = {1,2,3,4}; % ={R1,R2,N1,N2}
rcap = [16,21,30,37];
rtype = [1,1,2,2];

mact = [1,2,2,2,3,3,3,4,4,4,5,5,5,6,6,6,7,7,7,8,8,8,9,9,9,10,10,10,11,11,11,12,12,12,13,13,13,14,14,14,15,15,15,16,16,16,17,17,17,18,18,18,19,19,19,20,20,20,21,21,21,22];
mdur = [0,2,8,10,1,5,7,4,6,10,2,3,5,1,6,7,1,6,10,1,2,3,5,7,10,2,3,3,3,5,6,3,5,6,2,6,10,3,7,8,1,3,4,4,8,8,5,9,10,10,10,10,4,6,10,1,7,9,2,8,9,0];
mrreq = [|0,0,7,6,0,0,0,9,7,0,0,0,0,0,0,0,0,0,0,7,5,4,0,0,0,0,0,0,0,3,1,0,4,0,7,6,0,6,2,0,0,3,2,0,0,0,7,0,0,1,0,5,3,1,0,0,6,3,7,6,3,0,
|0,7,0,0,2,2,1,0,0,2,3,3,2,4,4,2,10,9,9,0,0,0,9,9,7,6,5,3,4,0,0,4,0,3,0,0,6,0,0,2,1,0,0,4,3,1,0,9,8,0,2,0,0,0,4,5,0,0,0,0,0,0,
|0,0,0,0,4,0,4,0,10,0,0,9,8,9,8,6,0,0,5,9,5,0,0,0,0,0,0,0,0,0,3,0,0,3,0,0,0,0,5,4,5,5,2,3,0,3,0,1,0,9,0,0,0,0,2,5,3,0,8,4,2,0,
|0,9,9,9,0,3,0,5,0,3,2,0,0,0,0,0,10,2,0,0,0,6,3,2,2,10,4,7,4,2,0,9,8,0,5,4,2,4,0,0,0,0,0,0,3,0,7,0,4,0,3,5,5,4,0,0,0,5,0,0,0,0|];

succ = [{2,3,4},{6,9,14},{5,8,11},{12,16,20},{9,17},{7,12,18},{8,17},{15,16},{10,13,16},{12,20},{14,15,19},{19,21},{15},{18},{21},{21},{19},{20},{22},{22},{22},{}];